
%FILE DATA:	Soccer Computational Problem for MiniZinc Models	%
%AUTHOR:	Jack Wall	%
%CONTACT:  	116397063@umail.ucc.ie			%
%LAST UPDATE:	03/16/2020, 15:01:12						%
%DESCRIPTION: 	180 games played with 30 games left				%


n=15; %number of teams

%Games to play
games=[|14,10|11,10|10,7|6,9|3,1|9,13|10,2|10,11|6,15|13,1|6,10|3,4|9,4|1,2|4,6|14,4|13,10|7,2|5,8|8,14|1,3|15,5|8,6|5,13|6,1|14,8|15,2|10,3|11,14|13,7|];

%Initial points
iPoints=[33,26,41,28,35,28,33,31,28,30,36,40,29,30,41];

%POSITION CONSTRAINTS
% [|teamID, operator, position|...]
% operators index:
%  1 for =  operator
%  2 for >  operator
%  3 for >= operator
%  4 for <  operator
%  5 for <= operator
positionConstraints=[|15,1,1|3,4,3|10,5,3|];